instances/knapsack/discrete/knapsack_110_3.lp
\ Model knapsack_110_3
\ LP format - for model browsing. Use MPS format to capture full model detail.
\ Signature: 0x1c7a262dccd0e095
Minimize
  - 51 x[0] - 8 x[1] - 69 x[2] - 97 x[3] - 7 x[4] - 78 x[5] - 63 x[6]
   - 97 x[7] - 24 x[8] - 40 x[9] - 88 x[10] - 4 x[11] - 84 x[12] - 27 x[13]
   - 52 x[14] - 41 x[15] - 7 x[16] - 15 x[17] - 36 x[18] - 79 x[19]
   - 67 x[20] - 40 x[21] - 61 x[22] - 21 x[23] - 78 x[24] - 20 x[25]
   - 93 x[26] - x[27] - 91 x[28] - 86 x[29] - 94 x[30] - 17 x[31] - 9 x[32]
   - 28 x[33] - 65 x[34] - 30 x[35] - 70 x[36] - 64 x[37] - 96 x[38]
   - 29 x[39] - 25 x[40] - 15 x[41] - 99 x[42] - 76 x[43] - 44 x[44]
   - 36 x[45] - 38 x[46] - 18 x[47] - 30 x[48] - 71 x[49] - 68 x[50]
   - 24 x[51] - 28 x[52] - 26 x[53] - 85 x[54] - 23 x[55] - 100 x[56]
   - 29 x[57] - 69 x[58] - 36 x[59] - 41 x[60] - 19 x[61] - 59 x[62]
   - 43 x[63] - 28 x[64] - 50 x[65] - 90 x[66] - 19 x[67] - 90 x[68]
   - 55 x[69] - 50 x[70] - 16 x[71] - 50 x[72] - 79 x[73] - 24 x[74]
   - 43 x[75] - 59 x[76] - 26 x[77] - 17 x[78] - 5 x[79] - 56 x[80]
   - 31 x[81] - 55 x[82] - 51 x[83] - 6 x[84] - 74 x[85] - 31 x[86]
   - 96 x[87] - 97 x[88] - 64 x[89] - 27 x[90] - 99 x[91] - 59 x[92]
   - 22 x[93] - 5 x[94] - 80 x[95] - 98 x[96] - 89 x[97] - 86 x[98]
   - 6 x[99] - 98 x[100] - 91 x[101] - 88 x[102] - 87 x[103] - 12 x[104]
   - 44 x[105] - 35 x[106] - 70 x[107] - 71 x[108] - 78 x[109]
Subject To
 primal_upper: 61 x[0] + 9 x[1] + 87 x[2] + 64 x[3] + 57 x[4] + 3 x[5]
   + 38 x[6] + 85 x[7] + 62 x[8] + 23 x[9] + 93 x[10] + 88 x[11] + 45 x[12]
   + 29 x[13] + 14 x[14] + 46 x[15] + 86 x[16] + 93 x[17] + 22 x[18]
   + 23 x[19] + 22 x[20] + 9 x[21] + 69 x[22] + 68 x[23] + 74 x[24]
   + 89 x[25] + 3 x[26] + 25 x[27] + 55 x[28] + 72 x[29] + 47 x[30]
   + 89 x[31] + 21 x[32] + 18 x[33] + 73 x[34] + 34 x[35] + 81 x[36]
   + 70 x[37] + 45 x[38] + 4 x[39] + 72 x[40] + 43 x[41] + 39 x[42]
   + 43 x[43] + 92 x[44] + 64 x[45] + 31 x[46] + 47 x[47] + 36 x[48]
   + 21 x[49] + 56 x[50] + 73 x[51] + 90 x[52] + 97 x[53] + 46 x[54]
   + x[55] + 2 x[56] + 60 x[57] + 61 x[58] + 59 x[59] + 38 x[60] + 92 x[61]
   + 41 x[62] + 84 x[63] + 37 x[64] + 73 x[65] + 70 x[66] + 48 x[67]
   + 77 x[68] + 67 x[69] + 59 x[70] + 75 x[71] + 19 x[72] + 44 x[73]
   + 37 x[74] + 86 x[75] + 36 x[76] + 68 x[77] + 90 x[78] + 92 x[79]
   + 67 x[80] + 51 x[81] + 88 x[82] + 59 x[83] + 99 x[84] + 87 x[85]
   + 9 x[86] + 69 x[87] + 15 x[88] + 88 x[89] + 2 x[90] + 50 x[91]
   + 78 x[92] + 89 x[93] + 93 x[94] + 90 x[95] + 70 x[96] + 54 x[97]
   + 49 x[98] + 49 x[99] + 42 x[100] + 97 x[101] + 35 x[102] + 5 x[103]
   + 46 x[104] + 59 x[105] + 8 x[106] + 56 x[107] + 68 x[108] + 58 x[109]
   + 6.1 r[0] + 0.9 r[1] + 8.7 r[2] + 6.4 r[3] + 5.7 r[4] + 0.3 r[5]
   + 3.8 r[6] + 8.5 r[7] + 6.2 r[8] + 2.3 r[9] + 9.3 r[10] + 8.8 r[11]
   + 4.5 r[12] + 2.9 r[13] + 1.4 r[14] + 4.6 r[15] + 8.6 r[16] + 9.3 r[17]
   + 2.2 r[18] + 2.3 r[19] + 2.2 r[20] + 0.9 r[21] + 6.9 r[22] + 6.8 r[23]
   + 7.4 r[24] + 8.9 r[25] + 0.3 r[26] + 2.5 r[27] + 5.5 r[28] + 7.2 r[29]
   + 4.7 r[30] + 8.9 r[31] + 2.1 r[32] + 1.8 r[33] + 7.3 r[34] + 3.4 r[35]
   + 8.1 r[36] + 7 r[37] + 4.5 r[38] + 0.4 r[39] + 7.2 r[40] + 4.3 r[41]
   + 3.9 r[42] + 4.3 r[43] + 9.2 r[44] + 6.4 r[45] + 3.1 r[46] + 4.7 r[47]
   + 3.6 r[48] + 2.1 r[49] + 5.6 r[50] + 7.3 r[51] + 9 r[52] + 9.7 r[53]
   + 4.6 r[54] + 0.1 r[55] + 0.2 r[56] + 6 r[57] + 6.1 r[58] + 5.9 r[59]
   + 3.8 r[60] + 9.2 r[61] + 4.1 r[62] + 8.4 r[63] + 3.7 r[64] + 7.3 r[65]
   + 7 r[66] + 4.8 r[67] + 7.7 r[68] + 6.7 r[69] + 5.9 r[70] + 7.5 r[71]
   + 1.9 r[72] + 4.4 r[73] + 3.7 r[74] + 8.6 r[75] + 3.6 r[76] + 6.8 r[77]
   + 9 r[78] + 9.2 r[79] + 6.7 r[80] + 5.1 r[81] + 8.8 r[82] + 5.9 r[83]
   + 9.9 r[84] + 8.7 r[85] + 0.9 r[86] + 6.9 r[87] + 1.5 r[88] + 8.8 r[89]
   + 0.2 r[90] + 5 r[91] + 7.8 r[92] + 8.9 r[93] + 9.3 r[94] + 9 r[95]
   + 7 r[96] + 5.4 r[97] + 4.9 r[98] + 4.9 r[99] + 4.2 r[100] + 9.7 r[101]
   + 3.5 r[102] + 0.5 r[103] + 4.6 r[104] + 5.9 r[105] + 0.8 r[106]
   + 5.6 r[107] + 6.8 r[108] + 5.8 r[109] <= 570
 primal_lower: 0.8816455729219213 x[0] + 2.513051747141588 x[1]
   + 1.302048488911241 x[2] + 1.991333375995492 x[3]
   + 3.492499847204695 x[4] + 2.629548979078723 x[5]
   + 2.361933571176493 x[6] + 3.61303363942691 x[7]
   + 1.491191086274902 x[8] + 1.792831376595095 x[9]
   + 3.774409065161918 x[10] + 1.069818064260482 x[11]
   + 1.554372855858188 x[12] + 4.296089400102955 x[13]
   + 3.762479967402851 x[14] + 0.8411745438648471 x[15]
   + 3.688433399863416 x[16] + 2.571756955358231 x[17]
   + 2.672702796986842 x[18] + 2.570761715053365 x[19]
   + 3.14726323908353 x[20] + 0.6329294841996898 x[21]
   + 0.6025632552562349 x[22] + 1.167342543326892 x[23]
   + 0.518855679215664 x[24] + 3.668250048193743 x[25]
   + 3.012820829660271 x[26] + 0.1431060695413283 x[27]
   + 4.280896540731653 x[28] + 0.9544901373018609 x[29]
   + 3.392799940082861 x[30] + 3.15054392707107 x[31]
   + 4.25833638886764 x[32] + 2.997417743554344 x[33]
   + 3.379446565773812 x[34] + 0.066108268711191 x[35]
   + 2.732327246795299 x[36] + 3.706779966291949 x[37]
   + 1.509680620266126 x[38] + 3.887606049218241 x[39]
   + 3.06171406592571 x[40] + 0.2927882237450722 x[41]
   + 0.1460680210018758 x[42] + 0.5787321359159751 x[43]
   + 2.692978797837339 x[44] + 1.390283811436456 x[45]
   + 3.907062121714604 x[46] + 3.802102881818782 x[47]
   + 2.271411302416336 x[48] + 0.9946587436686279 x[49]
   + 3.80224169563305 x[50] + 2.809140390590288 x[51]
   + 2.653080194463449 x[52] + 2.094713354080943 x[53]
   + 3.819572409884177 x[54] + 3.66305836169148 x[55]
   + 1.710678954239308 x[56] + 3.168643895565667 x[57]
   + 3.938030938797734 x[58] + 1.699372884571534 x[59]
   + 2.353534477321742 x[60] + 0.8979159801638366 x[61]
   + 1.71170952107956 x[62] + 0.4676153742694044 x[63]
   + 0.5070526302725964 x[64] + 1.256665566704656 x[65]
   + 1.810087515778025 x[66] + 0.5311238128840193 x[67]
   + 3.005134339414308 x[68] + 3.321147333894781 x[69]
   + 3.161887835308569 x[70] + 3.218546835949752 x[71]
   + 1.701928971186584 x[72] + 1.587137463964883 x[73]
   + 3.112036059070537 x[74] + 0.7303907083920939 x[75]
   + 2.176777600961089 x[76] + 1.03327922675338 x[77]
   + 0.9048001505300401 x[78] + 0.6352002677648414 x[79]
   + 1.773098239445276 x[80] + 1.663374463918476 x[81]
   + 1.024254680283212 x[82] + 0.4351044053490424 x[83]
   + 0.7874580437499926 x[84] + 0.4808542579795833 x[85]
   + 1.420270368760901 x[86] + 4.249680222224624 x[87]
   + 0.7320609642796726 x[88] + 3.459845664751966 x[89]
   + 4.278793126372951 x[90] + 2.221648446100475 x[91]
   + 1.873771114962881 x[92] + 1.340764909573617 x[93]
   + 3.70234657177036 x[94] + 0.829114215967884 x[95]
   + 1.693063839642249 x[96] + 0.5066255163471116 x[97]
   + 0.9619853366432174 x[98] + 0.8071769856990901 x[99]
   + 2.876550752568198 x[100] + 3.010454681877626 x[101]
   + 0.7015088301841129 x[102] + 0.7493958544233574 x[103]
   + 1.344889203855851 x[104] + 2.839895963131342 x[105]
   + 2.179359065407476 x[106] + 3.726276109061862 x[107]
   + 1.009307588556332 x[108] + 0.691078714044539 x[109] + 69 u[0] + 9 u[1]
   + 87 u[2] + 72 u[3] + 61 u[4] + 43 u[5] + 10 u[6] + 33 u[7] + 34 u[8]
   + 83 u[9] + 65 u[10] + 56 u[11] + 53 u[12] + 93 u[13] + 94 u[14]
   + 50 u[15] + 10 u[16] + 85 u[17] + 50 u[18] + 55 u[19] + 98 u[20]
   + 45 u[21] + 33 u[22] + 56 u[23] + 82 u[24] + 69 u[25] + 23 u[26]
   + 61 u[27] + 67 u[28] + 28 u[29] + 87 u[30] + u[31] + 9 u[32] + 90 u[33]
   + 65 u[34] + 98 u[35] + 13 u[36] + 78 u[37] + 29 u[38] + 16 u[39]
   + 16 u[40] + 27 u[41] + 47 u[42] + 35 u[43] + 20 u[44] + 80 u[45]
   + 95 u[46] + 47 u[47] + 52 u[48] + 29 u[49] + 92 u[50] + 33 u[51]
   + 22 u[52] + 17 u[53] + 30 u[54] + 53 u[55] + 2 u[56] + 64 u[57]
   + 45 u[58] + 11 u[59] + 22 u[60] + 80 u[61] + 9 u[62] + 32 u[63]
   + 53 u[64] + 13 u[65] + 22 u[66] + 32 u[67] + 81 u[68] + 27 u[69]
   + 79 u[70] + 19 u[71] + 11 u[72] + 24 u[73] + 37 u[74] + 6 u[75]
   + 20 u[76] + 24 u[77] + 26 u[78] + 28 u[79] + 63 u[80] + 55 u[81]
   + 8 u[82] + 7 u[83] + 75 u[84] + 51 u[85] + 33 u[86] + 89 u[87]
   + 47 u[88] + 76 u[89] + 66 u[90] + 94 u[91] + 90 u[92] + u[93]
   + 41 u[94] + 18 u[95] + 26 u[96] + 50 u[97] + 37 u[98] + 69 u[99]
   + 34 u[100] + 9 u[101] + 39 u[102] + 33 u[103] + 46 u[104] + 11 u[105]
   + 84 u[106] + 8 u[107] + 84 u[108] + 2 u[109] <= 66476
 mccormick1[0]: - u[0] + r[0] <= 0
 mccormick1[1]: - u[1] + r[1] <= 0
 mccormick1[2]: - u[2] + r[2] <= 0
 mccormick1[3]: - u[3] + r[3] <= 0
 mccormick1[4]: - u[4] + r[4] <= 0
 mccormick1[5]: - u[5] + r[5] <= 0
 mccormick1[6]: - u[6] + r[6] <= 0
 mccormick1[7]: - u[7] + r[7] <= 0
 mccormick1[8]: - u[8] + r[8] <= 0
 mccormick1[9]: - u[9] + r[9] <= 0
 mccormick1[10]: - u[10] + r[10] <= 0
 mccormick1[11]: - u[11] + r[11] <= 0
 mccormick1[12]: - u[12] + r[12] <= 0
 mccormick1[13]: - u[13] + r[13] <= 0
 mccormick1[14]: - u[14] + r[14] <= 0
 mccormick1[15]: - u[15] + r[15] <= 0
 mccormick1[16]: - u[16] + r[16] <= 0
 mccormick1[17]: - u[17] + r[17] <= 0
 mccormick1[18]: - u[18] + r[18] <= 0
 mccormick1[19]: - u[19] + r[19] <= 0
 mccormick1[20]: - u[20] + r[20] <= 0
 mccormick1[21]: - u[21] + r[21] <= 0
 mccormick1[22]: - u[22] + r[22] <= 0
 mccormick1[23]: - u[23] + r[23] <= 0
 mccormick1[24]: - u[24] + r[24] <= 0
 mccormick1[25]: - u[25] + r[25] <= 0
 mccormick1[26]: - u[26] + r[26] <= 0
 mccormick1[27]: - u[27] + r[27] <= 0
 mccormick1[28]: - u[28] + r[28] <= 0
 mccormick1[29]: - u[29] + r[29] <= 0
 mccormick1[30]: - u[30] + r[30] <= 0
 mccormick1[31]: - u[31] + r[31] <= 0
 mccormick1[32]: - u[32] + r[32] <= 0
 mccormick1[33]: - u[33] + r[33] <= 0
 mccormick1[34]: - u[34] + r[34] <= 0
 mccormick1[35]: - u[35] + r[35] <= 0
 mccormick1[36]: - u[36] + r[36] <= 0
 mccormick1[37]: - u[37] + r[37] <= 0
 mccormick1[38]: - u[38] + r[38] <= 0
 mccormick1[39]: - u[39] + r[39] <= 0
 mccormick1[40]: - u[40] + r[40] <= 0
 mccormick1[41]: - u[41] + r[41] <= 0
 mccormick1[42]: - u[42] + r[42] <= 0
 mccormick1[43]: - u[43] + r[43] <= 0
 mccormick1[44]: - u[44] + r[44] <= 0
 mccormick1[45]: - u[45] + r[45] <= 0
 mccormick1[46]: - u[46] + r[46] <= 0
 mccormick1[47]: - u[47] + r[47] <= 0
 mccormick1[48]: - u[48] + r[48] <= 0
 mccormick1[49]: - u[49] + r[49] <= 0
 mccormick1[50]: - u[50] + r[50] <= 0
 mccormick1[51]: - u[51] + r[51] <= 0
 mccormick1[52]: - u[52] + r[52] <= 0
 mccormick1[53]: - u[53] + r[53] <= 0
 mccormick1[54]: - u[54] + r[54] <= 0
 mccormick1[55]: - u[55] + r[55] <= 0
 mccormick1[56]: - u[56] + r[56] <= 0
 mccormick1[57]: - u[57] + r[57] <= 0
 mccormick1[58]: - u[58] + r[58] <= 0
 mccormick1[59]: - u[59] + r[59] <= 0
 mccormick1[60]: - u[60] + r[60] <= 0
 mccormick1[61]: - u[61] + r[61] <= 0
 mccormick1[62]: - u[62] + r[62] <= 0
 mccormick1[63]: - u[63] + r[63] <= 0
 mccormick1[64]: - u[64] + r[64] <= 0
 mccormick1[65]: - u[65] + r[65] <= 0
 mccormick1[66]: - u[66] + r[66] <= 0
 mccormick1[67]: - u[67] + r[67] <= 0
 mccormick1[68]: - u[68] + r[68] <= 0
 mccormick1[69]: - u[69] + r[69] <= 0
 mccormick1[70]: - u[70] + r[70] <= 0
 mccormick1[71]: - u[71] + r[71] <= 0
 mccormick1[72]: - u[72] + r[72] <= 0
 mccormick1[73]: - u[73] + r[73] <= 0
 mccormick1[74]: - u[74] + r[74] <= 0
 mccormick1[75]: - u[75] + r[75] <= 0
 mccormick1[76]: - u[76] + r[76] <= 0
 mccormick1[77]: - u[77] + r[77] <= 0
 mccormick1[78]: - u[78] + r[78] <= 0
 mccormick1[79]: - u[79] + r[79] <= 0
 mccormick1[80]: - u[80] + r[80] <= 0
 mccormick1[81]: - u[81] + r[81] <= 0
 mccormick1[82]: - u[82] + r[82] <= 0
 mccormick1[83]: - u[83] + r[83] <= 0
 mccormick1[84]: - u[84] + r[84] <= 0
 mccormick1[85]: - u[85] + r[85] <= 0
 mccormick1[86]: - u[86] + r[86] <= 0
 mccormick1[87]: - u[87] + r[87] <= 0
 mccormick1[88]: - u[88] + r[88] <= 0
 mccormick1[89]: - u[89] + r[89] <= 0
 mccormick1[90]: - u[90] + r[90] <= 0
 mccormick1[91]: - u[91] + r[91] <= 0
 mccormick1[92]: - u[92] + r[92] <= 0
 mccormick1[93]: - u[93] + r[93] <= 0
 mccormick1[94]: - u[94] + r[94] <= 0
 mccormick1[95]: - u[95] + r[95] <= 0
 mccormick1[96]: - u[96] + r[96] <= 0
 mccormick1[97]: - u[97] + r[97] <= 0
 mccormick1[98]: - u[98] + r[98] <= 0
 mccormick1[99]: - u[99] + r[99] <= 0
 mccormick1[100]: - u[100] + r[100] <= 0
 mccormick1[101]: - u[101] + r[101] <= 0
 mccormick1[102]: - u[102] + r[102] <= 0
 mccormick1[103]: - u[103] + r[103] <= 0
 mccormick1[104]: - u[104] + r[104] <= 0
 mccormick1[105]: - u[105] + r[105] <= 0
 mccormick1[106]: - u[106] + r[106] <= 0
 mccormick1[107]: - u[107] + r[107] <= 0
 mccormick1[108]: - u[108] + r[108] <= 0
 mccormick1[109]: - u[109] + r[109] <= 0
 mccormick2[0]: - x[0] + r[0] <= 0
 mccormick2[1]: - x[1] + r[1] <= 0
 mccormick2[2]: - x[2] + r[2] <= 0
 mccormick2[3]: - x[3] + r[3] <= 0
 mccormick2[4]: - x[4] + r[4] <= 0
 mccormick2[5]: - x[5] + r[5] <= 0
 mccormick2[6]: - x[6] + r[6] <= 0
 mccormick2[7]: - x[7] + r[7] <= 0
 mccormick2[8]: - x[8] + r[8] <= 0
 mccormick2[9]: - x[9] + r[9] <= 0
 mccormick2[10]: - x[10] + r[10] <= 0
 mccormick2[11]: - x[11] + r[11] <= 0
 mccormick2[12]: - x[12] + r[12] <= 0
 mccormick2[13]: - x[13] + r[13] <= 0
 mccormick2[14]: - x[14] + r[14] <= 0
 mccormick2[15]: - x[15] + r[15] <= 0
 mccormick2[16]: - x[16] + r[16] <= 0
 mccormick2[17]: - x[17] + r[17] <= 0
 mccormick2[18]: - x[18] + r[18] <= 0
 mccormick2[19]: - x[19] + r[19] <= 0
 mccormick2[20]: - x[20] + r[20] <= 0
 mccormick2[21]: - x[21] + r[21] <= 0
 mccormick2[22]: - x[22] + r[22] <= 0
 mccormick2[23]: - x[23] + r[23] <= 0
 mccormick2[24]: - x[24] + r[24] <= 0
 mccormick2[25]: - x[25] + r[25] <= 0
 mccormick2[26]: - x[26] + r[26] <= 0
 mccormick2[27]: - x[27] + r[27] <= 0
 mccormick2[28]: - x[28] + r[28] <= 0
 mccormick2[29]: - x[29] + r[29] <= 0
 mccormick2[30]: - x[30] + r[30] <= 0
 mccormick2[31]: - x[31] + r[31] <= 0
 mccormick2[32]: - x[32] + r[32] <= 0
 mccormick2[33]: - x[33] + r[33] <= 0
 mccormick2[34]: - x[34] + r[34] <= 0
 mccormick2[35]: - x[35] + r[35] <= 0
 mccormick2[36]: - x[36] + r[36] <= 0
 mccormick2[37]: - x[37] + r[37] <= 0
 mccormick2[38]: - x[38] + r[38] <= 0
 mccormick2[39]: - x[39] + r[39] <= 0
 mccormick2[40]: - x[40] + r[40] <= 0
 mccormick2[41]: - x[41] + r[41] <= 0
 mccormick2[42]: - x[42] + r[42] <= 0
 mccormick2[43]: - x[43] + r[43] <= 0
 mccormick2[44]: - x[44] + r[44] <= 0
 mccormick2[45]: - x[45] + r[45] <= 0
 mccormick2[46]: - x[46] + r[46] <= 0
 mccormick2[47]: - x[47] + r[47] <= 0
 mccormick2[48]: - x[48] + r[48] <= 0
 mccormick2[49]: - x[49] + r[49] <= 0
 mccormick2[50]: - x[50] + r[50] <= 0
 mccormick2[51]: - x[51] + r[51] <= 0
 mccormick2[52]: - x[52] + r[52] <= 0
 mccormick2[53]: - x[53] + r[53] <= 0
 mccormick2[54]: - x[54] + r[54] <= 0
 mccormick2[55]: - x[55] + r[55] <= 0
 mccormick2[56]: - x[56] + r[56] <= 0
 mccormick2[57]: - x[57] + r[57] <= 0
 mccormick2[58]: - x[58] + r[58] <= 0
 mccormick2[59]: - x[59] + r[59] <= 0
 mccormick2[60]: - x[60] + r[60] <= 0
 mccormick2[61]: - x[61] + r[61] <= 0
 mccormick2[62]: - x[62] + r[62] <= 0
 mccormick2[63]: - x[63] + r[63] <= 0
 mccormick2[64]: - x[64] + r[64] <= 0
 mccormick2[65]: - x[65] + r[65] <= 0
 mccormick2[66]: - x[66] + r[66] <= 0
 mccormick2[67]: - x[67] + r[67] <= 0
 mccormick2[68]: - x[68] + r[68] <= 0
 mccormick2[69]: - x[69] + r[69] <= 0
 mccormick2[70]: - x[70] + r[70] <= 0
 mccormick2[71]: - x[71] + r[71] <= 0
 mccormick2[72]: - x[72] + r[72] <= 0
 mccormick2[73]: - x[73] + r[73] <= 0
 mccormick2[74]: - x[74] + r[74] <= 0
 mccormick2[75]: - x[75] + r[75] <= 0
 mccormick2[76]: - x[76] + r[76] <= 0
 mccormick2[77]: - x[77] + r[77] <= 0
 mccormick2[78]: - x[78] + r[78] <= 0
 mccormick2[79]: - x[79] + r[79] <= 0
 mccormick2[80]: - x[80] + r[80] <= 0
 mccormick2[81]: - x[81] + r[81] <= 0
 mccormick2[82]: - x[82] + r[82] <= 0
 mccormick2[83]: - x[83] + r[83] <= 0
 mccormick2[84]: - x[84] + r[84] <= 0
 mccormick2[85]: - x[85] + r[85] <= 0
 mccormick2[86]: - x[86] + r[86] <= 0
 mccormick2[87]: - x[87] + r[87] <= 0
 mccormick2[88]: - x[88] + r[88] <= 0
 mccormick2[89]: - x[89] + r[89] <= 0
 mccormick2[90]: - x[90] + r[90] <= 0
 mccormick2[91]: - x[91] + r[91] <= 0
 mccormick2[92]: - x[92] + r[92] <= 0
 mccormick2[93]: - x[93] + r[93] <= 0
 mccormick2[94]: - x[94] + r[94] <= 0
 mccormick2[95]: - x[95] + r[95] <= 0
 mccormick2[96]: - x[96] + r[96] <= 0
 mccormick2[97]: - x[97] + r[97] <= 0
 mccormick2[98]: - x[98] + r[98] <= 0
 mccormick2[99]: - x[99] + r[99] <= 0
 mccormick2[100]: - x[100] + r[100] <= 0
 mccormick2[101]: - x[101] + r[101] <= 0
 mccormick2[102]: - x[102] + r[102] <= 0
 mccormick2[103]: - x[103] + r[103] <= 0
 mccormick2[104]: - x[104] + r[104] <= 0
 mccormick2[105]: - x[105] + r[105] <= 0
 mccormick2[106]: - x[106] + r[106] <= 0
 mccormick2[107]: - x[107] + r[107] <= 0
 mccormick2[108]: - x[108] + r[108] <= 0
 mccormick2[109]: - x[109] + r[109] <= 0
 mccormick3[0]: x[0] + u[0] - r[0] <= 1
 mccormick3[1]: x[1] + u[1] - r[1] <= 1
 mccormick3[2]: x[2] + u[2] - r[2] <= 1
 mccormick3[3]: x[3] + u[3] - r[3] <= 1
 mccormick3[4]: x[4] + u[4] - r[4] <= 1
 mccormick3[5]: x[5] + u[5] - r[5] <= 1
 mccormick3[6]: x[6] + u[6] - r[6] <= 1
 mccormick3[7]: x[7] + u[7] - r[7] <= 1
 mccormick3[8]: x[8] + u[8] - r[8] <= 1
 mccormick3[9]: x[9] + u[9] - r[9] <= 1
 mccormick3[10]: x[10] + u[10] - r[10] <= 1
 mccormick3[11]: x[11] + u[11] - r[11] <= 1
 mccormick3[12]: x[12] + u[12] - r[12] <= 1
 mccormick3[13]: x[13] + u[13] - r[13] <= 1
 mccormick3[14]: x[14] + u[14] - r[14] <= 1
 mccormick3[15]: x[15] + u[15] - r[15] <= 1
 mccormick3[16]: x[16] + u[16] - r[16] <= 1
 mccormick3[17]: x[17] + u[17] - r[17] <= 1
 mccormick3[18]: x[18] + u[18] - r[18] <= 1
 mccormick3[19]: x[19] + u[19] - r[19] <= 1
 mccormick3[20]: x[20] + u[20] - r[20] <= 1
 mccormick3[21]: x[21] + u[21] - r[21] <= 1
 mccormick3[22]: x[22] + u[22] - r[22] <= 1
 mccormick3[23]: x[23] + u[23] - r[23] <= 1
 mccormick3[24]: x[24] + u[24] - r[24] <= 1
 mccormick3[25]: x[25] + u[25] - r[25] <= 1
 mccormick3[26]: x[26] + u[26] - r[26] <= 1
 mccormick3[27]: x[27] + u[27] - r[27] <= 1
 mccormick3[28]: x[28] + u[28] - r[28] <= 1
 mccormick3[29]: x[29] + u[29] - r[29] <= 1
 mccormick3[30]: x[30] + u[30] - r[30] <= 1
 mccormick3[31]: x[31] + u[31] - r[31] <= 1
 mccormick3[32]: x[32] + u[32] - r[32] <= 1
 mccormick3[33]: x[33] + u[33] - r[33] <= 1
 mccormick3[34]: x[34] + u[34] - r[34] <= 1
 mccormick3[35]: x[35] + u[35] - r[35] <= 1
 mccormick3[36]: x[36] + u[36] - r[36] <= 1
 mccormick3[37]: x[37] + u[37] - r[37] <= 1
 mccormick3[38]: x[38] + u[38] - r[38] <= 1
 mccormick3[39]: x[39] + u[39] - r[39] <= 1
 mccormick3[40]: x[40] + u[40] - r[40] <= 1
 mccormick3[41]: x[41] + u[41] - r[41] <= 1
 mccormick3[42]: x[42] + u[42] - r[42] <= 1
 mccormick3[43]: x[43] + u[43] - r[43] <= 1
 mccormick3[44]: x[44] + u[44] - r[44] <= 1
 mccormick3[45]: x[45] + u[45] - r[45] <= 1
 mccormick3[46]: x[46] + u[46] - r[46] <= 1
 mccormick3[47]: x[47] + u[47] - r[47] <= 1
 mccormick3[48]: x[48] + u[48] - r[48] <= 1
 mccormick3[49]: x[49] + u[49] - r[49] <= 1
 mccormick3[50]: x[50] + u[50] - r[50] <= 1
 mccormick3[51]: x[51] + u[51] - r[51] <= 1
 mccormick3[52]: x[52] + u[52] - r[52] <= 1
 mccormick3[53]: x[53] + u[53] - r[53] <= 1
 mccormick3[54]: x[54] + u[54] - r[54] <= 1
 mccormick3[55]: x[55] + u[55] - r[55] <= 1
 mccormick3[56]: x[56] + u[56] - r[56] <= 1
 mccormick3[57]: x[57] + u[57] - r[57] <= 1
 mccormick3[58]: x[58] + u[58] - r[58] <= 1
 mccormick3[59]: x[59] + u[59] - r[59] <= 1
 mccormick3[60]: x[60] + u[60] - r[60] <= 1
 mccormick3[61]: x[61] + u[61] - r[61] <= 1
 mccormick3[62]: x[62] + u[62] - r[62] <= 1
 mccormick3[63]: x[63] + u[63] - r[63] <= 1
 mccormick3[64]: x[64] + u[64] - r[64] <= 1
 mccormick3[65]: x[65] + u[65] - r[65] <= 1
 mccormick3[66]: x[66] + u[66] - r[66] <= 1
 mccormick3[67]: x[67] + u[67] - r[67] <= 1
 mccormick3[68]: x[68] + u[68] - r[68] <= 1
 mccormick3[69]: x[69] + u[69] - r[69] <= 1
 mccormick3[70]: x[70] + u[70] - r[70] <= 1
 mccormick3[71]: x[71] + u[71] - r[71] <= 1
 mccormick3[72]: x[72] + u[72] - r[72] <= 1
 mccormick3[73]: x[73] + u[73] - r[73] <= 1
 mccormick3[74]: x[74] + u[74] - r[74] <= 1
 mccormick3[75]: x[75] + u[75] - r[75] <= 1
 mccormick3[76]: x[76] + u[76] - r[76] <= 1
 mccormick3[77]: x[77] + u[77] - r[77] <= 1
 mccormick3[78]: x[78] + u[78] - r[78] <= 1
 mccormick3[79]: x[79] + u[79] - r[79] <= 1
 mccormick3[80]: x[80] + u[80] - r[80] <= 1
 mccormick3[81]: x[81] + u[81] - r[81] <= 1
 mccormick3[82]: x[82] + u[82] - r[82] <= 1
 mccormick3[83]: x[83] + u[83] - r[83] <= 1
 mccormick3[84]: x[84] + u[84] - r[84] <= 1
 mccormick3[85]: x[85] + u[85] - r[85] <= 1
 mccormick3[86]: x[86] + u[86] - r[86] <= 1
 mccormick3[87]: x[87] + u[87] - r[87] <= 1
 mccormick3[88]: x[88] + u[88] - r[88] <= 1
 mccormick3[89]: x[89] + u[89] - r[89] <= 1
 mccormick3[90]: x[90] + u[90] - r[90] <= 1
 mccormick3[91]: x[91] + u[91] - r[91] <= 1
 mccormick3[92]: x[92] + u[92] - r[92] <= 1
 mccormick3[93]: x[93] + u[93] - r[93] <= 1
 mccormick3[94]: x[94] + u[94] - r[94] <= 1
 mccormick3[95]: x[95] + u[95] - r[95] <= 1
 mccormick3[96]: x[96] + u[96] - r[96] <= 1
 mccormick3[97]: x[97] + u[97] - r[97] <= 1
 mccormick3[98]: x[98] + u[98] - r[98] <= 1
 mccormick3[99]: x[99] + u[99] - r[99] <= 1
 mccormick3[100]: x[100] + u[100] - r[100] <= 1
 mccormick3[101]: x[101] + u[101] - r[101] <= 1
 mccormick3[102]: x[102] + u[102] - r[102] <= 1
 mccormick3[103]: x[103] + u[103] - r[103] <= 1
 mccormick3[104]: x[104] + u[104] - r[104] <= 1
 mccormick3[105]: x[105] + u[105] - r[105] <= 1
 mccormick3[106]: x[106] + u[106] - r[106] <= 1
 mccormick3[107]: x[107] + u[107] - r[107] <= 1
 mccormick3[108]: x[108] + u[108] - r[108] <= 1
 mccormick3[109]: x[109] + u[109] - r[109] <= 1
Bounds
Binaries
 x[0] x[1] x[2] x[3] x[4] x[5] x[6] x[7] x[8] x[9] x[10] x[11] x[12] x[13]
 x[14] x[15] x[16] x[17] x[18] x[19] x[20] x[21] x[22] x[23] x[24] x[25]
 x[26] x[27] x[28] x[29] x[30] x[31] x[32] x[33] x[34] x[35] x[36] x[37]
 x[38] x[39] x[40] x[41] x[42] x[43] x[44] x[45] x[46] x[47] x[48] x[49]
 x[50] x[51] x[52] x[53] x[54] x[55] x[56] x[57] x[58] x[59] x[60] x[61]
 x[62] x[63] x[64] x[65] x[66] x[67] x[68] x[69] x[70] x[71] x[72] x[73]
 x[74] x[75] x[76] x[77] x[78] x[79] x[80] x[81] x[82] x[83] x[84] x[85]
 x[86] x[87] x[88] x[89] x[90] x[91] x[92] x[93] x[94] x[95] x[96] x[97]
 x[98] x[99] x[100] x[101] x[102] x[103] x[104] x[105] x[106] x[107] x[108]
 x[109] u[0] u[1] u[2] u[3] u[4] u[5] u[6] u[7] u[8] u[9] u[10] u[11] u[12]
 u[13] u[14] u[15] u[16] u[17] u[18] u[19] u[20] u[21] u[22] u[23] u[24]
 u[25] u[26] u[27] u[28] u[29] u[30] u[31] u[32] u[33] u[34] u[35] u[36]
 u[37] u[38] u[39] u[40] u[41] u[42] u[43] u[44] u[45] u[46] u[47] u[48]
 u[49] u[50] u[51] u[52] u[53] u[54] u[55] u[56] u[57] u[58] u[59] u[60]
 u[61] u[62] u[63] u[64] u[65] u[66] u[67] u[68] u[69] u[70] u[71] u[72]
 u[73] u[74] u[75] u[76] u[77] u[78] u[79] u[80] u[81] u[82] u[83] u[84]
 u[85] u[86] u[87] u[88] u[89] u[90] u[91] u[92] u[93] u[94] u[95] u[96]
 u[97] u[98] u[99] u[100] u[101] u[102] u[103] u[104] u[105] u[106] u[107]
 u[108] u[109] r[0] r[1] r[2] r[3] r[4] r[5] r[6] r[7] r[8] r[9] r[10]
 r[11] r[12] r[13] r[14] r[15] r[16] r[17] r[18] r[19] r[20] r[21] r[22]
 r[23] r[24] r[25] r[26] r[27] r[28] r[29] r[30] r[31] r[32] r[33] r[34]
 r[35] r[36] r[37] r[38] r[39] r[40] r[41] r[42] r[43] r[44] r[45] r[46]
 r[47] r[48] r[49] r[50] r[51] r[52] r[53] r[54] r[55] r[56] r[57] r[58]
 r[59] r[60] r[61] r[62] r[63] r[64] r[65] r[66] r[67] r[68] r[69] r[70]
 r[71] r[72] r[73] r[74] r[75] r[76] r[77] r[78] r[79] r[80] r[81] r[82]
 r[83] r[84] r[85] r[86] r[87] r[88] r[89] r[90] r[91] r[92] r[93] r[94]
 r[95] r[96] r[97] r[98] r[99] r[100] r[101] r[102] r[103] r[104] r[105]
 r[106] r[107] r[108] r[109]
End
