instances/knapsack/discrete_knapsack_uncertainty/knapsack_110_3.kp
66108
110
570

61 6.1 51
9 0.9 8
87 8.7 69
64 6.4 97
57 5.7 7
3 0.3 78
38 3.8 63
85 8.5 97
62 6.2 24
23 2.3 40
93 9.3 88
88 8.8 4
45 4.5 84
29 2.9 27
14 1.4 52
46 4.6 41
86 8.6 7
93 9.3 15
22 2.2 36
23 2.3 79
22 2.2 67
9 0.9 40
69 6.9 61
68 6.8 21
74 7.4 78
89 8.9 20
3 0.3 93
25 2.5 1
55 5.5 91
72 7.2 86
47 4.7 94
89 8.9 17
21 2.1 9
18 1.8 28
73 7.3 65
34 3.4 30
81 8.1 70
70 7.0 64
45 4.5 96
4 0.4 29
72 7.2 25
43 4.3 15
39 3.9 99
43 4.3 76
92 9.2 44
64 6.4 36
31 3.1 38
47 4.7 18
36 3.6 30
21 2.1 71
56 5.6 68
73 7.3 24
90 9.0 28
97 9.7 26
46 4.6 85
1 0.1 23
2 0.2 100
60 6.0 29
61 6.1 69
59 5.9 36
38 3.8 41
92 9.2 19
41 4.1 59
84 8.4 43
37 3.7 28
73 7.3 50
70 7.0 90
48 4.8 19
77 7.7 90
67 6.7 55
59 5.9 50
75 7.5 16
19 1.9 50
44 4.4 79
37 3.7 24
86 8.6 43
36 3.6 59
68 6.8 26
90 9.0 17
92 9.2 5
67 6.7 56
51 5.1 31
88 8.8 55
59 5.9 51
99 9.9 6
87 8.7 74
9 0.9 31
69 6.9 96
15 1.5 97
88 8.8 64
2 0.2 27
50 5.0 99
78 7.8 59
89 8.9 22
93 9.3 5
90 9.0 80
70 7.0 98
54 5.4 89
49 4.9 86
49 4.9 6
42 4.2 98
97 9.7 91
35 3.5 88
5 0.5 87
46 4.6 12
59 5.9 44
8 0.8 35
56 5.6 70
68 6.8 71
58 5.8 78

66476
473

[0.8816455729219213 2.5130517471415876 1.3020484889112414 1.9913333759954923 3.492499847204695 2.629548979078723 2.3619335711764933 3.61303363942691 1.491191086274902 1.7928313765950947 3.7744090651619184 1.0698180642604822 1.5543728558581882 4.296089400102955 3.7624799674028506 0.8411745438648471 3.6884333998634156 2.571756955358231 2.672702796986842 2.570761715053365 3.1472632390835296 0.6329294841996898 0.6025632552562349 1.1673425433268922 0.518855679215664 3.668250048193743 3.0128208296602708 0.1431060695413283 4.2808965407316535 0.9544901373018609 3.3927999400828606 3.1505439270710704 4.25833638886764 2.9974177435543443 3.3794465657738124 0.06610826871119095 2.7323272467952986 3.706779966291949 1.5096806202661264 3.8876060492182414 3.06171406592571 0.29278822374507224 0.14606802100187583 0.578732135915975 2.6929787978373385 1.3902838114364564 3.9070621217146044 3.8021028818187816 2.271411302416336 0.9946587436686279 3.80224169563305 2.8091403905902883 2.6530801944634486 2.0947133540809433 3.8195724098841772 3.66305836169148 1.7106789542393082 3.1686438955656673 3.938030938797734 1.6993728845715343 2.353534477321742 0.8979159801638366 1.7117095210795596 0.46761537426940436 0.5070526302725964 1.256665566704656 1.8100875157780245 0.5311238128840193 3.005134339414308 3.321147333894781 3.161887835308569 3.2185468359497516 1.7019289711865844 1.5871374639648825 3.112036059070537 0.7303907083920939 2.1767776009610893 1.0332792267533797 0.9048001505300401 0.6352002677648414 1.7730982394452761 1.663374463918476 1.0242546802832124 0.43510440534904243 0.7874580437499926 0.48085425797958326 1.4202703687609006 4.249680222224624 0.7320609642796726 3.4598456647519655 4.278793126372951 2.2216484461004753 1.873771114962881 1.3407649095736172 3.7023465717703603 0.829114215967884 1.6930638396422495 0.5066255163471116 0.9619853366432174 0.8071769856990901 2.876550752568198 3.010454681877626 0.7015088301841129 0.7493958544233574 1.344889203855851 2.839895963131342 2.179359065407476 3.726276109061862 1.0093075885563316 0.691078714044539]

[69 9 87 72 61 43 10 33 34 83 65 56 53 93 94 50 10 85 50 55 98 45 33 56 82 69 23 61 67 28 87 1 9 90 65 98 13 78 29 16 16 27 47 35 20 80 95 47 52 29 92 33 22 17 30 53 2 64 45 11 22 80 9 32 53 13 22 32 81 27 79 19 11 24 37 6 20 24 26 28 63 55 8 7 75 51 33 89 47 76 66 94 90 1 41 18 26 50 37 69 34 9 39 33 46 11 84 8 84 2]
